WARNING: for repeatability, setting FPU to use double precision
============================[ Problem Statistics ]=============================
|                                                                             |
|  Number of variables:            50                                         |
|  Number of clauses:             218                                         |
|  Parse time:                   0.00 s                                       |
|                                                                             |
============================[ Search Statistics ]==============================
| Conflicts |          ORIGINAL         |          LEARNT          | Progress |
|           |    Vars  Clauses Literals |    Limit  Clauses Lit/Cl |          |
===============================================================================
===============================================================================
restarts              : 1
conflicts             : 66             (335025 /sec)
decisions             : 75             (0.00 % random) (380711 /sec)
propagations          : 877            (4451777 /sec)
conflict literals     : 263            (13.49 % deleted)
Memory used           : 20.00 MB
CPU time              : 0.000197 s

UNSATISFIABLE
